c description: Graph pigeonhole principle formula on fast_gnp_random_graph(20,10,0.5)
c generator: CNFgen (0.9.0)
c copyright: (C) 2012-2020 Massimo Lauria <massimo.lauria@uniroma1.it>
c url: https://massimolauria.net/cnfgen
c
p cnf 97 451
1 2 3 4 5 6 0
7 8 9 10 11 12 0
13 14 15 16 0
17 18 19 20 0
21 22 23 24 0
25 26 27 28 29 0
30 31 32 33 34 35 0
36 37 38 39 40 0
41 42 43 44 45 0
46 47 48 0
49 50 51 52 53 54 55 0
56 57 58 59 60 0
61 62 63 64 0
65 66 67 68 69 0
70 71 72 73 0
74 75 76 77 78 79 0
80 81 82 0
83 84 85 86 87 88 0
89 90 91 92 93 0
94 95 96 97 0
-1 -7 0
-1 -21 0
-1 -41 0
-1 -49 0
-1 -61 0
-1 -80 0
-1 -83 0
-1 -89 0
-1 -94 0
-7 -21 0
-7 -41 0
-7 -49 0
-7 -61 0
-7 -80 0
-7 -83 0
-7 -89 0
-7 -94 0
-21 -41 0
-21 -49 0
-21 -61 0
-21 -80 0
-21 -83 0
-21 -89 0
-21 -94 0
-41 -49 0
-41 -61 0
-41 -80 0
-41 -83 0
-41 -89 0
-41 -94 0
-49 -61 0
-49 -80 0
-49 -83 0
-49 -89 0
-49 -94 0
-61 -80 0
-61 -83 0
-61 -89 0
-61 -94 0
-80 -83 0
-80 -89 0
-80 -94 0
-83 -89 0
-83 -94 0
-89 -94 0
-8 -13 0
-8 -17 0
-8 -22 0
-8 -25 0
-8 -30 0
-8 -50 0
-8 -65 0
-8 -74 0
-8 -81 0
-8 -84 0
-13 -17 0
-13 -22 0
-13 -25 0
-13 -30 0
-13 -50 0
-13 -65 0
-13 -74 0
-13 -81 0
-13 -84 0
-17 -22 0
-17 -25 0
-17 -30 0
-17 -50 0
-17 -65 0
-17 -74 0
-17 -81 0
-17 -84 0
-22 -25 0
-22 -30 0
-22 -50 0
-22 -65 0
-22 -74 0
-22 -81 0
-22 -84 0
-25 -30 0
-25 -50 0
-25 -65 0
-25 -74 0
-25 -81 0
-25 -84 0
-30 -50 0
-30 -65 0
-30 -74 0
-30 -81 0
-30 -84 0
-50 -65 0
-50 -74 0
-50 -81 0
-50 -84 0
-65 -74 0
-65 -81 0
-65 -84 0
-74 -81 0
-74 -84 0
-81 -84 0
-2 -26 0
-2 -31 0
-2 -42 0
-2 -46 0
-2 -66 0
-2 -75 0
-2 -82 0
-2 -85 0
-2 -90 0
-26 -31 0
-26 -42 0
-26 -46 0
-26 -66 0
-26 -75 0
-26 -82 0
-26 -85 0
-26 -90 0
-31 -42 0
-31 -46 0
-31 -66 0
-31 -75 0
-31 -82 0
-31 -85 0
-31 -90 0
-42 -46 0
-42 -66 0
-42 -75 0
-42 -82 0
-42 -85 0
-42 -90 0
-46 -66 0
-46 -75 0
-46 -82 0
-46 -85 0
-46 -90 0
-66 -75 0
-66 -82 0
-66 -85 0
-66 -90 0
-75 -82 0
-75 -85 0
-75 -90 0
-82 -85 0
-82 -90 0
-85 -90 0
-9 -18 0
-9 -36 0
-9 -47 0
-9 -51 0
-9 -56 0
-9 -62 0
-9 -70 0
-9 -95 0
-18 -36 0
-18 -47 0
-18 -51 0
-18 -56 0
-18 -62 0
-18 -70 0
-18 -95 0
-36 -47 0
-36 -51 0
-36 -56 0
-36 -62 0
-36 -70 0
-36 -95 0
-47 -51 0
-47 -56 0
-47 -62 0
-47 -70 0
-47 -95 0
-51 -56 0
-51 -62 0
-51 -70 0
-51 -95 0
-56 -62 0
-56 -70 0
-56 -95 0
-62 -70 0
-62 -95 0
-70 -95 0
-3 -10 0
-3 -23 0
-3 -32 0
-3 -52 0
-3 -57 0
-3 -71 0
-3 -76 0
-3 -86 0
-3 -96 0
-10 -23 0
-10 -32 0
-10 -52 0
-10 -57 0
-10 -71 0
-10 -76 0
-10 -86 0
-10 -96 0
-23 -32 0
-23 -52 0
-23 -57 0
-23 -71 0
-23 -76 0
-23 -86 0
-23 -96 0
-32 -52 0
-32 -57 0
-32 -71 0
-32 -76 0
-32 -86 0
-32 -96 0
-52 -57 0
-52 -71 0
-52 -76 0
-52 -86 0
-52 -96 0
-57 -71 0
-57 -76 0
-57 -86 0
-57 -96 0
-71 -76 0
-71 -86 0
-71 -96 0
-76 -86 0
-76 -96 0
-86 -96 0
-14 -19 0
-14 -27 0
-14 -33 0
-14 -37 0
-14 -43 0
-14 -53 0
-14 -58 0
-14 -63 0
-14 -67 0
-14 -77 0
-14 -91 0
-19 -27 0
-19 -33 0
-19 -37 0
-19 -43 0
-19 -53 0
-19 -58 0
-19 -63 0
-19 -67 0
-19 -77 0
-19 -91 0
-27 -33 0
-27 -37 0
-27 -43 0
-27 -53 0
-27 -58 0
-27 -63 0
-27 -67 0
-27 -77 0
-27 -91 0
-33 -37 0
-33 -43 0
-33 -53 0
-33 -58 0
-33 -63 0
-33 -67 0
-33 -77 0
-33 -91 0
-37 -43 0
-37 -53 0
-37 -58 0
-37 -63 0
-37 -67 0
-37 -77 0
-37 -91 0
-43 -53 0
-43 -58 0
-43 -63 0
-43 -67 0
-43 -77 0
-43 -91 0
-53 -58 0
-53 -63 0
-53 -67 0
-53 -77 0
-53 -91 0
-58 -63 0
-58 -67 0
-58 -77 0
-58 -91 0
-63 -67 0
-63 -77 0
-63 -91 0
-67 -77 0
-67 -91 0
-77 -91 0
-38 -44 0
-38 -54 0
-38 -59 0
-38 -72 0
-38 -78 0
-38 -92 0
-44 -54 0
-44 -59 0
-44 -72 0
-44 -78 0
-44 -92 0
-54 -59 0
-54 -72 0
-54 -78 0
-54 -92 0
-59 -72 0
-59 -78 0
-59 -92 0
-72 -78 0
-72 -92 0
-78 -92 0
-4 -11 0
-4 -15 0
-4 -28 0
-4 -34 0
-4 -45 0
-4 -48 0
-4 -55 0
-4 -73 0
-4 -79 0
-11 -15 0
-11 -28 0
-11 -34 0
-11 -45 0
-11 -48 0
-11 -55 0
-11 -73 0
-11 -79 0
-15 -28 0
-15 -34 0
-15 -45 0
-15 -48 0
-15 -55 0
-15 -73 0
-15 -79 0
-28 -34 0
-28 -45 0
-28 -48 0
-28 -55 0
-28 -73 0
-28 -79 0
-34 -45 0
-34 -48 0
-34 -55 0
-34 -73 0
-34 -79 0
-45 -48 0
-45 -55 0
-45 -73 0
-45 -79 0
-48 -55 0
-48 -73 0
-48 -79 0
-55 -73 0
-55 -79 0
-73 -79 0
-5 -16 0
-5 -29 0
-5 -39 0
-5 -64 0
-5 -68 0
-5 -87 0
-5 -97 0
-16 -29 0
-16 -39 0
-16 -64 0
-16 -68 0
-16 -87 0
-16 -97 0
-29 -39 0
-29 -64 0
-29 -68 0
-29 -87 0
-29 -97 0
-39 -64 0
-39 -68 0
-39 -87 0
-39 -97 0
-64 -68 0
-64 -87 0
-64 -97 0
-68 -87 0
-68 -97 0
-87 -97 0
-6 -12 0
-6 -20 0
-6 -24 0
-6 -35 0
-6 -40 0
-6 -60 0
-6 -69 0
-6 -88 0
-6 -93 0
-12 -20 0
-12 -24 0
-12 -35 0
-12 -40 0
-12 -60 0
-12 -69 0
-12 -88 0
-12 -93 0
-20 -24 0
-20 -35 0
-20 -40 0
-20 -60 0
-20 -69 0
-20 -88 0
-20 -93 0
-24 -35 0
-24 -40 0
-24 -60 0
-24 -69 0
-24 -88 0
-24 -93 0
-35 -40 0
-35 -60 0
-35 -69 0
-35 -88 0
-35 -93 0
-40 -60 0
-40 -69 0
-40 -88 0
-40 -93 0
-60 -69 0
-60 -88 0
-60 -93 0
-69 -88 0
-69 -93 0
-88 -93 0